n_res = 4;
rc = [ 0, 0, 0, 0 ];
n_tasks = 30;
d = [ 8, 6, 4, 4, 10, 3, 1, 5, 2, 3, 7, 3, 4, 5, 1, 4, 8, 5, 7, 6, 7, 6, 5, 6, 7, 3, 10, 8, 9, 2 ];
rr = [| 0, 0, 0, 0, 0, 0, 0, 0, 0, 0, 0, 0, 0, 0, 0, 0, 0, 0, 0, 0, 0, 0, 0, 0, 0, 0, 0, 0, 0, 0
      | 0, 0, 0, 0, 0, 0, 0, 0, 0, 0, 0, 0, 0, 0, 0, 0, 0, 0, 0, 0, 0, 0, 0, 0, 0, 0, 0, 0, 0, 0
      | 0, 0, 0, 0, 0, 0, 0, 0, 0, 0, 0, 0, 0, 0, 0, 0, 0, 0, 0, 0, 0, 0, 0, 0, 0, 0, 0, 0, 0, 0
      | 0, 0, 0, 0, 0, 0, 0, 0, 0, 0, 0, 0, 0, 0, 0, 0, 0, 0, 0, 0, 0, 0, 0, 0, 0, 0, 0, 0, 0, 0 |];
suc = [ { 12, 27 },
       { 5, 7, 8 },
       { 4, 26 },
       { 15 },
       { 6, 20, 26 },
       { 9, 22 },
       { 10, 21, 22 },
       { 14 },
       { 17 },
       { 11, 13, 15 },
       { 30 },
       { 29 },
       { 16, 23 },
       { 18 },
       { 27 },
       { 18, 25 },
       { 19 },
       { 24 },
       { 24 },
       { 23 },
       { 24, 25, 28 },
       { 28 },
       { 29 },
       { 29 },
       { 30 },
       { 27 },
       { 28 },
       {  },
       {  },
       {  } ];
